76
125
87	14
86	10
85	11
84	11
83	16
82	14
81	9
80	12
79	13
78	10
77	13
76	12
75	17
74	11
73	14
72	11
71	25
70	22
69	13
68	13
67	13
66	18
65	11
64	16
63	10
62	8
61	18
60	16
59	8
58	9
57	13
56	18
55	11
54	9
53	16
52	15
51	14
50	14
49	11
48	13
47	14
46	14
45	9
44	11
43	14
42	13
41	11
40	22
39	11
38	12
37	7
36	15
35	17
34	17
33	14
32	10
31	14
30	12
29	15
28	14
27	16
26	11
25	11
24	13
23	18
22	7
21	13
20	17
19	8
18	14
17	17
16	16
15	13
14	12
13	11
12	5
